
  32   50
   7   12   16    9    6   11   16    9   23    7   10   10    5    8   15   10    9   16   11   10   18    7   10   10   12   11   14    6    8   10   13   11    0    0    0    0    0    0    0    0    0    0    0    0    0    0    0    0    0    0

   0   0   0   0   0   0   0   0   0   0   0   0   0   0   0   0   0   0   0   0   0   0   0   0   0   0   0   0   0   0   0   0   0   0   0   0   0   0   0   0   0   0   0   0   0   0   0   0   0   0   0   9 2 3 4 5 6 7 9 12 22 
   6   0   0   0   2   0   0   0   0   1   0   0   9   0   0   0   0   0   0   8   0   0   0   0   0   0   0   0   0   0   6   0   3   0   0   0   0   0   0   0   0   0   0   0   0   0   0   0   0   0   0   7 30 21 18 16 15 13 10 
   5   0   0   6   1   0   0   0   0   0   0   0   0   0   1   0   0   0   0   0  10   8   0   0   0   0   0   0   0   0   6   0   0   0   0   0   0   0   0   0   0   0   0   0   0   0   0   0   0   0   0   6 31 28 21 19 17 8 
   8   0   0   0   0   0   0   0   9   0   0   0   0   0   8   0  10   1   1   0   0   6   0   0   0   0   0   2   0   0   0   3   0   0   0   0   0   0   0   0   0   0   0   0   0   0   0   0   0   0   0   6 31 30 27 26 14 11 
   1   0   0   0   0   0   0   0   0   0   0   0   0   0   0   0   0   0   0   0   0   0   0   0   0   0   0   0   0   0   0   0   4   0   0   0   0   0   0   0   0   0   0   0   0   0   0   0   0   0   0   5 27 26 18 14 11 
   6   0   0   0   0   4   0   0   0   0   0   0   0   0   0   0   0   0   0   0   0   9   0  10   0   0   0   0   0   0   0   0   6   0   0   0   0   0   0   0   0   0   0   0   0   0   0   0   0   0   0   3 19 16 11 
   2   0   0   0   0   0   0   0   0   0   0  10   0   0   0   0   0   0   9   0   0   0   0   0   0   6   4   0   0   0   0   0   1   0   0   0   0   0   0   0   0   0   0   0   0   0   0   0   0   0   0   5 30 27 25 24 13 
   8   0   0   0   0   0   0   0   0   9   0   0   3   0   0   0   0   0   0   0   0   0   0   1   0   0   0   0   0   0   0   0   0   0   0   0   0   0   0   0   0   0   0   0   0   0   0   0   0   0   0   4 29 25 20 16 
   9   0   0   0   0   0   0   0   0   0   0   0   0   0   0   0   0   0   0   6   0   0   0   0   0   1   0   0   4   0   0   0   0   0   0   0   0   0   0   0   0   0   0   0   0   0   0   0   0   0   0   4 29 27 21 15 
  10   0   0   0   0   0   0   9   0   5   0   8   0   0   0  10   0   0   8   0   0   0   0   0   0   0   0   0   0   0   0   5   0   0   0   0   0   0   0   0   0   0   0   0   0   0   0   0   0   0   0   5 27 26 25 24 20 
   5   0   0   0   8   0   0   0   0   4   0   0   0   0   0   0   0   0   0   6   0   0   0   0   0   0   0   0   0   0   0   0   0   0   0   0   0   0   0   0   0   0   0   0   0   0   0   0   0   0   0   5 29 28 25 24 23 
   3   4   0   0   7   0   4   6   0   0   0   0   0   0   0   0   0   0   0   0   0   0   0   0   0   0   0   0   0   0   0   0   0   0   0   0   0   0   0   0   0   0   0   0   0   0   0   0   0   0   0   4 26 25 24 20 
   2   0   0   0   0   5   0   0   0   0   0   0   1   0   0   0   0   0   0   0   0   0   0   0   0   0  10   8   0   0   0   0   0   0   0   0   0   0   0   0   0   0   0   0   0   0   0   0   0   0   0   4 29 28 26 23 
   4   0   0   0   0   0   0   0   0   0   0   0   0   0   0   0   0   0   0   0   0   0   0   0   4   0   0   0   0   0   0   0   0   0   0   0   0   0   0   0   0   0   0   0   0   0   0   0   0   0   0   3 28 25 20 
  10   0   0   0   0   6   0   0   0   0   0   0   1   0   0   0   0   0   0   0   0   0   7   0   0   0   0   0   0   0   9   0   0   0   0   0   0   0   0   0   0   0   0   0   0   0   0   0   0   0   0   3 25 24 20 
   9   2   0   0   0   0   3   0   0   0   0   2   0   0   0   0   0   0   0   0   0   0   0   0   2   0   0   0   6   0   0   0   0   0   0   0   0   0   0   0   0   0   0   0   0   0   0   0   0   0   0   3 27 26 24 
   8   0   0   0   0   0   0   0   0   0   5   0   0   0   0   0   0   0   0   0   0   6   0   0   0   0   0   0   0   0   0   8   0   0   0   0   0   0   0   0   0   0   0   0   0   0   0   0   0   0   0   3 30 25 24 
  10   0   0   0   0   0   0   0   0   0   0   0   0   0   0   0   0   0   0   0   0   0   0   0   0   0   2   8   0   0   1   0   0   0   0   0   0   0   0   0   0   0   0   0   0   0   0   0   0   0   0   2 28 24 
  10   0   0  10   0   0   8   1   0   0   0   0   0   0   0   7   0   0   0   0   0   0   0   0   0   4   0   0   0   8   0   0   0   0   0   0   0   0   0   0   0   0   0   0   0   0   0   0   0   0   0   1 20 
   8   0   5   0   0   0   0   0   0   0   0   0   0   0   0   0   0   0   0   0   0   0   0   0   0   7   0   0   0   0   0   0   0   0   0   0   0   0   0   0   0   0   0   0   0   0   0   0   0   0   0   1 23 
   7   0   0   0   0   0   0   0   0   6   4   0   0   0   0   0   0   0   8   0   0   0   0   0   0   0   0   0   0   0   0   0   0   0   0   0   0   0   0   0   0   0   0   0   0   0   0   0   0   0   0   1 24 
   8   3   0   0   0   0   0   0   0   0   0   0   0   0   0   2   0   0   0   0   0   0   0   0   0   0   0   0   0   0   0   0   0   0   0   0   0   0   0   0   0   0   0   0   0   0   0   0   0   0   0   1 23 
   8   0   6   0   0   0   0   0   0   0   0   0   0   0   0   1   3   0   0   0   0   0   0   0   0   0   0   0   0   0   6   3   0   0   0   0   0   0   0   0   0   0   0   0   0   0   0   0   0   0   0   1 32
   3   0   0   0   0   0   0   0   0   0   0   0   4   5   0   0   0   6   0   0   0   0   0   0   0   0   0   3   0   0   0   0   0   0   0   0   0   0   0   0   0   0   0   0   0   0   0   0   0   0   0   1 32
   5   0   0   0   0   0   0   0   0   0   0   0   0   0   0   0   0   0   0   0   6   0   0   0   0   0   0   0   0   0   0   0   0   0   0   0   0   0   0   0   0   0   0   0   0   0   0   0   0   0   0   1 32
   7   0   0   0   0   0   0   0   0  10   0   0   0   0   2   0   0   0   0   0   0   0   0   0   0   0   0   0   0   0   0   0   0   0   0   0   0   0   0   0   0   0   0   0   0   0   0   0   0   0   0   1 32
   4   0   0   0   0   0   0  10   0   0   0   0   0   0   4   6   4   5   1   0   0   0   0   0   0   0   0   1   0   0   0  10   0   0   0   0   0   0   0   0   0   0   0   0   0   0   0   0   0   0   0   1 32
   8   6   9   5   0   1   3   0   0   0   0   0   0   0   0   0   0   0   0   0   0   0   0   0   0   8   0   6   0   0   0   0   0   0   0   0   0   0   0   0   0   0   0   0   0   0   0   0   0   0   0   1 32
  10   0   0   0   0   0   0   0   8   3   0   0   0   0   0   0   0   0   0   0   0   0   0   0   0   0   8   0   0   0   0   0   0   0   0   0   0   0   0   0   0   0   0   0   0   0   0   0   0   0   0   1 32
   6   0   0   0   0   0   0   0   2   0   0   0   0   0   0   0   0   0   5   0   0   0   0   0   9   0   0   0   0   0   2   4   0   0   0   0   0   0   0   0   0   0   0   0   0   0   0   0   0   0   0   1 32
   8   0   0  10   0   0   2  10   0   7   0   0   0   0   0   0   0   0   0   0   0   0   0   0   0   0   0   0   0   0   0   0   0   0   0   0   0   0   0   0   0   0   0   0   0   0   0   0   0   0   0   1 32
   0   0   0   0   0   0   0   0   0   0   0   0   0   0   0   0   0   0   0   0   0   0   0   0   0   0   0   0   0   0   0   0   0   0   0   0   0   0   0   0   0   0   0   0   0   0   0   0   0   0   0   0 
